Generated by VASPKIT code               
   1.00000000000000     
     5.8584555020346114    0.0000000000000000    0.0000000000000000
     0.0000000000000006   10.1595299534885299    0.0000000000000000
     0.0000000000000006   -3.4030164087778383   27.8253606017194599
   Ti   Al   Ga
    16    16     2
Direct
     0.0000000000000000    0.9906631621778175    0.3311991629400595
     0.0000000000000000    0.4906631621778175    0.5032121140557635
     0.0000000000000000    0.7593368378221825    0.4107814103863845
     0.0000000000000000    0.2593368378221825    0.5827943615020885
     0.0000000000000000    0.2522464326350331    0.4132206934280802
     0.0000000000000000    0.7522464326350331    0.5852336445437842
     0.0000000000000000    0.9977535673649669    0.5007728310140678
     0.0000000000000000    0.4977535673649669    0.3287598798983637
     0.5000000000000000    0.0022464326350331    0.6712401201016363
     0.5000000000000000    0.5022464326350331    0.4992271689859322
     0.5000000000000000    0.7477535673649669    0.4147663554562158
     0.5000000000000000    0.2477535673649669    0.5867793065719198
     0.5000000000000000    0.2268085916795570    0.4219719696136082
     0.5000000000000000    0.7268085916795570    0.5939849207293122
     0.5000000000000000    0.0231914083204430    0.4920215548285398
     0.5000000000000000    0.5231914083204430    0.6640345059442510
     0.2426853098166575    0.9963426549083323    0.4127353029972127
     0.2426853098166575    0.4963426549083323    0.5847482541129168
     0.2139168288822191    0.7319584144411095    0.4937932272504142
     0.2139168288822191    0.2319584144411095    0.6658061783661253
     0.2426853098166575    0.2536573450916677    0.5012582214449353
     0.2426853098166575    0.7536573450916677    0.3292452703292241
     0.2139168288822191    0.0180415855588905    0.5922132483074378
     0.2139168288822191    0.5180415855588905    0.4202002971917267
     0.7573146901833425    0.9963426549083323    0.4127353029972127
     0.7573146901833425    0.4963426549083323    0.5847482541129168
     0.7860831711177809    0.7319584144411095    0.4937932272504142
     0.7860831711177809    0.2319584144411095    0.6658061783661253
     0.7573146901833425    0.2536573450916677    0.5012582214449353
     0.7573146901833425    0.7536573450916677    0.3292452703292241
     0.7860831711177809    0.0180415855588905    0.5922132483074378
     0.7860831711177809    0.5180415855588905    0.4202002971917267
     0.5000000000000000    0.8750000000000000    0.5430032377789260
     0.5000000000000000    0.3750000000000000    0.3709902866632220
 
  0.00000000E+00  0.00000000E+00  0.00000000E+00
  0.00000000E+00  0.00000000E+00  0.00000000E+00
  0.00000000E+00  0.00000000E+00  0.00000000E+00
  0.00000000E+00  0.00000000E+00  0.00000000E+00
  0.00000000E+00  0.00000000E+00  0.00000000E+00
  0.00000000E+00  0.00000000E+00  0.00000000E+00
  0.00000000E+00  0.00000000E+00  0.00000000E+00
  0.00000000E+00  0.00000000E+00  0.00000000E+00
  0.00000000E+00  0.00000000E+00  0.00000000E+00
  0.00000000E+00  0.00000000E+00  0.00000000E+00
  0.00000000E+00  0.00000000E+00  0.00000000E+00
  0.00000000E+00  0.00000000E+00  0.00000000E+00
  0.00000000E+00  0.00000000E+00  0.00000000E+00
  0.00000000E+00  0.00000000E+00  0.00000000E+00
  0.00000000E+00  0.00000000E+00  0.00000000E+00
  0.00000000E+00  0.00000000E+00  0.00000000E+00
  0.00000000E+00  0.00000000E+00  0.00000000E+00
  0.00000000E+00  0.00000000E+00  0.00000000E+00
  0.00000000E+00  0.00000000E+00  0.00000000E+00
  0.00000000E+00  0.00000000E+00  0.00000000E+00
  0.00000000E+00  0.00000000E+00  0.00000000E+00
  0.00000000E+00  0.00000000E+00  0.00000000E+00
  0.00000000E+00  0.00000000E+00  0.00000000E+00
  0.00000000E+00  0.00000000E+00  0.00000000E+00
  0.00000000E+00  0.00000000E+00  0.00000000E+00
  0.00000000E+00  0.00000000E+00  0.00000000E+00
  0.00000000E+00  0.00000000E+00  0.00000000E+00
  0.00000000E+00  0.00000000E+00  0.00000000E+00
  0.00000000E+00  0.00000000E+00  0.00000000E+00
  0.00000000E+00  0.00000000E+00  0.00000000E+00
  0.00000000E+00  0.00000000E+00  0.00000000E+00
  0.00000000E+00  0.00000000E+00  0.00000000E+00
  0.00000000E+00  0.00000000E+00  0.00000000E+00
  0.00000000E+00  0.00000000E+00  0.00000000E+00
