Generated by VASPKIT code
 1.000000
    5.8584555020346114    0.0000000000000000    0.0000000000000000
    0.0000000000000006   10.1595299534885299    0.0000000000000000
    0.0000000000000006   -3.4030164087778383   27.8253606017194599
   Ti   Al   Ga
    16    16     2
Direct
    0.0000000000000000    0.9906631621778200    0.3311991629400575    Ti001
    0.0000000000000000    0.4906631621778200    0.5032121140557638    Ti002
    0.0000000000000000    0.7593368378221799    0.4107814103863829    Ti003
    0.0000000000000000    0.2593368378221799    0.5827943615020894    Ti004
    0.0000000000000000    0.2522464326350300    0.4132206934280785    Ti005
    0.0000000000000000    0.7522464326350300    0.5852336445437849    Ti006
    0.0000000000000000    0.9977535673649701    0.5007728310140683    Ti007
    0.0000000000000000    0.4977535673649701    0.3287598798983619    Ti008
    0.5000000000000000    0.0022464326350300    0.6712401201016381    Ti009
    0.5000000000000000    0.5022464326350300    0.4992271689859317    Ti010
    0.5000000000000000    0.7477535673649701    0.4147663554562151    Ti011
    0.5000000000000000    0.2477535673649700    0.5867793065719215    Ti012
    0.5000000000000000    0.2268085916795542    0.4219719696136053    Ti013
    0.5000000000000000    0.7268085916795541    0.5939849207293116    Ti014
    0.5000000000000000    0.0231914083204456    0.4920215548285416    Ti015
    0.5000000000000000    0.5231914083204456    0.6640345059442480    Ti016
    0.2426853098166604    0.9963426549083303    0.4127353029972134    Al001
    0.2426853098166604    0.4963426549083302    0.5847482541129199    Al002
    0.2139168288822172    0.7319584144411088    0.4937932272504172    Al003
    0.2139168288822172    0.2319584144411087    0.6658061783661235    Al004
    0.2426853098166604    0.2536573450916700    0.5012582214449334    Al005
    0.2426853098166604    0.7536573450916699    0.3292452703292269    Al006
    0.2139168288822172    0.0180415855588912    0.5922132483074359    Al007
    0.2139168288822172    0.5180415855588911    0.4202002971917296    Al008
    0.7573146901833400    0.9963426549083303    0.4127353029972134    Al009
    0.7573146901833400    0.4963426549083302    0.5847482541129199    Al010
    0.7860831711177824    0.7319584144411088    0.4937932272504172    Al011
    0.7860831711177824    0.2319584144411087    0.6658061783661237    Al012
    0.7573146901833400    0.2536573450916700    0.5012582214449334    Al013
    0.7573146901833400    0.7536573450916700    0.3292452703292269    Al014
    0.7860831711177824    0.0180415855588912    0.5922132483074359    Al015
    0.7860831711177824    0.5180415855588912    0.4202002971917296    Al016
    0.5000000000000000    0.8750000000000000    0.5430032377789266    Ga001
    0.5000000000000000    0.3750000000000000    0.3709902866632202    Ga002
