Generated by VASPKIT code
 1.000000
    9.8813496164706116    0.0000000000000000    0.0000000000000000
    0.0000000000000003    5.6452860610502613    0.0000000000000000
   -3.4309646087450498    0.0000000000000008   25.9730774963423023
   Ti   Ga   Al
    16     2    14
Direct
    0.9997899817764077    0.0001971558665805    0.3218296770734940    Ti001
    0.4997899817764077    0.0001971558665805    0.5002179051934468    Ti002
    0.7504071740901728    0.0001971558665805    0.4108035914469468    Ti003
    0.2504071740901728    0.0001971558665805    0.5891918195668997    Ti004
    0.9997899817764077    0.4998028441334196    0.3218296770734940    Ti005
    0.4997899817764077    0.4998028441334195    0.5002179051934468    Ti006
    0.7504071740901728    0.4998028441334196    0.4108035914469468    Ti007
    0.2504071740901728    0.4998028441334195    0.5891918195668997    Ti008
    0.2495928259098271    0.0001971558665805    0.4109534505620648    Ti009
    0.7495928259098272    0.0001971558665805    0.5893416786820178    Ti010
    0.0002100182235923    0.0001971558665805    0.4999273649355178    Ti011
    0.5002100182235922    0.0001971558665805    0.6783155930554705    Ti012
    0.2495928259098271    0.4998028441334195    0.4109534505620649    Ti013
    0.7495928259098272    0.4998028441334196    0.5893416786820178    Ti014
    0.0002100182235923    0.4998028441334195    0.4999273649355178    Ti015
    0.5002100182235922    0.4998028441334195    0.6783155930554705    Ti016
    0.0000000000000000    0.2500000000000000    0.4108785210045058    Ga001
    0.5000000000000000    0.2500000000000000    0.5892667491244588    Ga002
    0.7500000000000000    0.2500000000000000    0.5000726350644822    Al001
    0.2500000000000000    0.2500000000000000    0.3216844069445294    Al002
    0.0000000000000000    0.7500000000000001    0.4108785210045059    Al003
    0.5000000000000000    0.7500000000000001    0.5892667491244588    Al004
    0.7500000000000000    0.7500000000000001    0.5000726350644822    Al005
    0.2500000000000000    0.7500000000000001    0.3216844069445294    Al006
    0.2500000000000000    0.2500000000000000    0.5000726350644824    Al007
    0.7500000000000000    0.2500000000000000    0.3216844069445294    Al008
    0.0000000000000000    0.2500000000000000    0.5892667491244588    Al009
    0.5000000000000000    0.2500000000000000    0.4108785210045059    Al010
    0.2500000000000000    0.7500000000000001    0.5000726350644824    Al011
    0.7500000000000000    0.7500000000000001    0.3216844069445294    Al012
    0.0000000000000000    0.7500000000000001    0.5892667491244588    Al013
    0.5000000000000000    0.7500000000000001    0.4108785210045059    Al014
