Ti1 Al1                                 
   1.00000000000000     
     5.5824278478697735    0.0000000000000000    0.0000000000000000
     0.0000000000000000    5.5824278478697735    0.0000000000000000
     0.0000000000000000    0.0000000000000000    8.0224921784971421
   Ti   Al   Ga
     8     8     8
Direct
     0.0000000000000000    0.0000000000000000    0.0000000000000000
     0.0000000000000000    0.0000000000000000    0.5000000000000000
     0.0000000000000000    0.5000000000000000    0.0000000000000000
     0.0000000000000000    0.5000000000000000    0.5000000000000000
     0.5000000000000000    0.0000000000000000    0.0000000000000000
     0.5000000000000000    0.0000000000000000    0.5000000000000000
     0.5000000000000000    0.5000000000000000    0.0000000000000000
     0.5000000000000000    0.5000000000000000    0.5000000000000000
     0.2500000000000000    0.2500000000000000    0.2500000000000000
     0.2500000000000000    0.2500000000000000    0.7500000000000000
     0.2500000000000000    0.7500000000000000    0.2500000000000000
     0.2500000000000000    0.7500000000000000    0.7500000000000000
     0.7500000000000000    0.2500000000000000    0.2500000000000000
     0.7500000000000000    0.2500000000000000    0.7500000000000000
     0.7500000000000000    0.7500000000000000    0.2500000000000000
     0.7500000000000000    0.7500000000000000    0.7500000000000000
     0.2500000000000000    0.2500000000000000    0.2481302568246554
     0.2500000000000000    0.2500000000000000    0.7500000000000000
     0.2500000000000000    0.7500000000000000    0.2500000000000000
     0.2500000000000000    0.7500000000000000    0.7500000000000000
     0.7500000000000000    0.2500000000000000    0.2500000000000000
     0.7500000000000000    0.2500000000000000    0.7500000000000000
     0.7500000000000000    0.7500000000000000    0.2500000000000000
     0.7500000000000000    0.7500000000000000    0.7500000000000000
 
  0.00000000E+00  0.00000000E+00  0.00000000E+00
  0.00000000E+00  0.00000000E+00  0.00000000E+00
  0.00000000E+00  0.00000000E+00  0.00000000E+00
  0.00000000E+00  0.00000000E+00  0.00000000E+00
  0.00000000E+00  0.00000000E+00  0.00000000E+00
  0.00000000E+00  0.00000000E+00  0.00000000E+00
  0.00000000E+00  0.00000000E+00  0.00000000E+00
  0.00000000E+00  0.00000000E+00  0.00000000E+00
  0.00000000E+00  0.00000000E+00  0.00000000E+00
  0.00000000E+00  0.00000000E+00  0.00000000E+00
  0.00000000E+00  0.00000000E+00  0.00000000E+00
  0.00000000E+00  0.00000000E+00  0.00000000E+00
  0.00000000E+00  0.00000000E+00  0.00000000E+00
  0.00000000E+00  0.00000000E+00  0.00000000E+00
  0.00000000E+00  0.00000000E+00  0.00000000E+00
  0.00000000E+00  0.00000000E+00  0.00000000E+00
  0.00000000E+00  0.00000000E+00  0.00000000E+00
  0.00000000E+00  0.00000000E+00  0.00000000E+00
  0.00000000E+00  0.00000000E+00  0.00000000E+00
  0.00000000E+00  0.00000000E+00  0.00000000E+00
  0.00000000E+00  0.00000000E+00  0.00000000E+00
  0.00000000E+00  0.00000000E+00  0.00000000E+00
  0.00000000E+00  0.00000000E+00  0.00000000E+00
  0.00000000E+00  0.00000000E+00  0.00000000E+00
