Generated by VASPKIT code               
   1.00000000000000     
     5.8584555020346114    0.0000000000000000    0.0000000000000000
     0.0000000000000005    8.3002739717741267    0.0000000000000000
     0.0000000000000004    0.0000000000000004   19.6052332788917880
   Ti   Al   Ga
     8     8     1
Direct
     0.0000000000000000    0.0186736756443580    0.3825509185894234
     0.0000000000000000    0.4813263243556420    0.3825509185894234
     0.5000000000000000    0.9955071347299409    0.3825509185894234
     0.5000000000000000    0.5044928652700591    0.3825509185894234
     0.0000000000000000    0.9955071347299409    0.5319614208439987
     0.0000000000000000    0.5044928652700591    0.5319614208439987
     0.5000000000000000    0.0463828166408931    0.5319614208439987
     0.5000000000000000    0.4536171833591069    0.5319614208439987
     0.2426853098166575    0.2500000000000000    0.4550703866484511
     0.2139168288822191    0.7500000000000000    0.4464737602774207
     0.7573146901833425    0.2500000000000000    0.4550703866484511
     0.7860831711177809    0.7500000000000000    0.4464737602774207
     0.2426853098166575    0.2500000000000000    0.6088524550395462
     0.2139168288822191    0.7500000000000000    0.6174490814105766
     0.7573146901833425    0.2500000000000000    0.6088524550395462
     0.7860831711177809    0.7500000000000000    0.6174490814105766
     0.5000000000000000    0.7500000000000000    0.5319614208439987
 
  0.00000000E+00  0.00000000E+00  0.00000000E+00
  0.00000000E+00  0.00000000E+00  0.00000000E+00
  0.00000000E+00  0.00000000E+00  0.00000000E+00
  0.00000000E+00  0.00000000E+00  0.00000000E+00
  0.00000000E+00  0.00000000E+00  0.00000000E+00
  0.00000000E+00  0.00000000E+00  0.00000000E+00
  0.00000000E+00  0.00000000E+00  0.00000000E+00
  0.00000000E+00  0.00000000E+00  0.00000000E+00
  0.00000000E+00  0.00000000E+00  0.00000000E+00
  0.00000000E+00  0.00000000E+00  0.00000000E+00
  0.00000000E+00  0.00000000E+00  0.00000000E+00
  0.00000000E+00  0.00000000E+00  0.00000000E+00
  0.00000000E+00  0.00000000E+00  0.00000000E+00
  0.00000000E+00  0.00000000E+00  0.00000000E+00
  0.00000000E+00  0.00000000E+00  0.00000000E+00
  0.00000000E+00  0.00000000E+00  0.00000000E+00
  0.00000000E+00  0.00000000E+00  0.00000000E+00
