Generated by VASPKIT code
 1.000000
    5.8584555020346114    0.0000000000000000    0.0000000000000000
    0.0000000000000005    8.3002739717741267    0.0000000000000000
    0.0000000000000004    0.0000000000000004   19.6052332788917880
   Ti   Al   Ga
     8     8     1
Direct
    0.0000000000000000    0.0186736756443600    0.3825509185894241    Ti001
    0.0000000000000000    0.4813263243556403    0.3825509185894241    Ti002
    0.5000000000000000    0.9955071347299400    0.3825509185894241    Ti003
    0.5000000000000000    0.5044928652700600    0.3825509185894241    Ti004
    0.0000000000000000    0.9955071347299400    0.5319614208439978    Ti005
    0.0000000000000000    0.5044928652700600    0.5319614208439978    Ti006
    0.5000000000000000    0.0463828166408916    0.5319614208439978    Ti007
    0.5000000000000000    0.4536171833591088    0.5319614208439978    Ti008
    0.2426853098166604    0.2500000000000000    0.4550703866484522    Al001
    0.2139168288822172    0.7500000000000001    0.4464737602774196    Al002
    0.7573146901833400    0.2500000000000000    0.4550703866484522    Al003
    0.7860831711177824    0.7500000000000001    0.4464737602774196    Al004
    0.2426853098166604    0.2500000000000000    0.6088524550395435    Al005
    0.2139168288822172    0.7500000000000001    0.6174490814105760    Al006
    0.7573146901833400    0.2500000000000000    0.6088524550395435    Al007
    0.7860831711177824    0.7500000000000001    0.6174490814105760    Al008
    0.5000000000000000    0.7500000000000001    0.5319614208439978    Ga001
