Ti1 Al1                                 
   1.00000000000000     
     5.8584555020346114    0.0000000000000000    0.0000000000000000
     0.0000000000000000    5.8584555020346114    0.0000000000000000
     0.0000000000000000    0.0000000000000000    8.3002739717741267
   Ti   Al   Ga
     8     8     1
Direct
     0.0000000000000000   -0.0000000000000000    0.0186736756443600
     0.0000000000000000   -0.0000000000000000    0.4813263243556402
     0.0000000000000000    0.5000000000000000   -0.0044928652700599
     0.0000000000000000    0.5000000000000000    0.5044928652700600
     0.5000000000000000   -0.0000000000000000   -0.0044928652700599
     0.5000000000000000   -0.0000000000000000    0.5044928652700600
     0.5000000000000000    0.5000000000000000    0.0463828166408916
     0.5000000000000000    0.5000000000000000    0.4536171833591087
     0.2426853098166603    0.2426853098166603    0.2500000000000000
     0.2139168288822172    0.2139168288822172    0.7500000000000000
     0.2426853098166603    0.7573146901833400    0.2500000000000000
     0.2139168288822172    0.7860831711177824    0.7500000000000000
     0.7573146901833400    0.2426853098166603    0.2500000000000000
     0.7860831711177824    0.2139168288822172    0.7500000000000000
     0.7573146901833400    0.7573146901833400    0.2500000000000000
     0.7860831711177824    0.7860831711177824    0.7500000000000000
     0.5000000000000000    0.5000000000000000    0.7500000000000000
 
  0.00000000E+00  0.00000000E+00  0.00000000E+00
  0.00000000E+00  0.00000000E+00  0.00000000E+00
  0.00000000E+00  0.00000000E+00  0.00000000E+00
  0.00000000E+00  0.00000000E+00  0.00000000E+00
  0.00000000E+00  0.00000000E+00  0.00000000E+00
  0.00000000E+00  0.00000000E+00  0.00000000E+00
  0.00000000E+00  0.00000000E+00  0.00000000E+00
  0.00000000E+00  0.00000000E+00  0.00000000E+00
  0.00000000E+00  0.00000000E+00  0.00000000E+00
  0.00000000E+00  0.00000000E+00  0.00000000E+00
  0.00000000E+00  0.00000000E+00  0.00000000E+00
  0.00000000E+00  0.00000000E+00  0.00000000E+00
  0.00000000E+00  0.00000000E+00  0.00000000E+00
  0.00000000E+00  0.00000000E+00  0.00000000E+00
  0.00000000E+00  0.00000000E+00  0.00000000E+00
  0.00000000E+00  0.00000000E+00  0.00000000E+00
  0.00000000E+00  0.00000000E+00  0.00000000E+00
