0000065828-primitive-cell\(1\1\1)       
   1.00000000000000     
     3.9934999943000000    0.0000000000000000    0.0000000000000000
    -1.9967256301000000    4.5336751741999999    0.0000000000000000
     0.0000000000000000    0.0000000000000000   21.2742996216000009
   Ti   Al
     4     4
Direct
     0.2090400009999982    0.4180899859999982    0.3711700140000005
     0.8060299750000013    0.6120600100000004    0.4554300010000034
     0.4030100109999992    0.8060299750000013    0.5396999720000011
     0.0000000000000000    0.0000000000000000    0.6239600179999982
     0.9105499980000005    0.8210999969999975    0.3290399910000019
     0.5075399879999978    0.0150700000000015    0.4133000080000002
     0.1045200009999974    0.2090400009999982    0.4975599939999995
     0.7015100120000000    0.4030100109999992    0.5818300250000021
 
  0.00000000E+00  0.00000000E+00  0.00000000E+00
  0.00000000E+00  0.00000000E+00  0.00000000E+00
  0.00000000E+00  0.00000000E+00  0.00000000E+00
  0.00000000E+00  0.00000000E+00  0.00000000E+00
  0.00000000E+00  0.00000000E+00  0.00000000E+00
  0.00000000E+00  0.00000000E+00  0.00000000E+00
  0.00000000E+00  0.00000000E+00  0.00000000E+00
  0.00000000E+00  0.00000000E+00  0.00000000E+00
