0000065828-primitive-cell\(1\1\1)
1.0
        3.9934999943         0.0000000000         0.0000000000
       -1.9967256301         4.5336751742         0.0000000000
        0.0000000000         0.0000000000        21.2742996216
   Ti   Al
    4    4
Direct
     0.209040001         0.418089986         0.371170014
     0.806029975         0.612060010         0.455430001
     0.403010011         0.806029975         0.539699972
     0.000000000         0.000000000         0.623960018
     0.910549998         0.821099997         0.329039991
     0.507539988         0.015070000         0.413300008
     0.104520001         0.209040001         0.497559994
     0.701510012         0.403010011         0.581830025
