Generated by VASPKIT code               
   1.00000000000000     
     5.6069519683837870    0.0000000000000000    0.0000000000000000
     0.0000000000000006    9.9681310671291463    0.0000000000000000
     0.0000000000000006   -3.6604470762088610   26.0804698346225585
   Ga   Ti   Al
     2    14    16
Direct
     0.0000000000000000    0.0000000000000000    0.3223477898604230
     0.0000000000000000    0.5000000000000000    0.5000999272111386
     0.0000000000000000    0.7500000000000000    0.4112238585357844
     0.0000000000000000    0.2500000000000000    0.5889759958865000
     0.0000000000000000    0.2500000000000000    0.4112238585357844
     0.0000000000000000    0.7500000000000000    0.5889759958865000
     0.0000000000000000    0.0000000000000000    0.5000999272111386
     0.0000000000000000    0.5000000000000000    0.3223477898604230
     0.5000000000000000    0.0000000000000000    0.3223477898604230
     0.5000000000000000    0.5000000000000000    0.5000999272111386
     0.5000000000000000    0.7500000000000000    0.4112238585357844
     0.5000000000000000    0.2500000000000000    0.5889759958865000
     0.5000000000000000    0.2500000000000000    0.4112238585357844
     0.5000000000000000    0.7500000000000000    0.5889759958865000
     0.5000000000000000    0.0000000000000000    0.5000999272111386
     0.5000000000000000    0.5000000000000000    0.3223477898604230
     0.2509468819257492    0.9994378283567826    0.4117603335303031
     0.2509468819257492    0.4994378283567826    0.5895124708810187
     0.2509468819257492    0.7515090535689737    0.4999000727888614
     0.2509468819257492    0.2515090535689737    0.6776522101395770
     0.2509468819257492    0.2484909464310263    0.5002997816334229
     0.2509468819257492    0.7484909464310263    0.3225476442827073
     0.2509468819257492    0.0005621716432174    0.5884395208919742
     0.2509468819257492    0.5005621716432174    0.4106873835412586
     0.7490531180742508    0.9994378283567826    0.4117603335303031
     0.7490531180742508    0.4994378283567826    0.5895124708810187
     0.7490531180742508    0.7515090535689737    0.4999000727888614
     0.7490531180742508    0.2515090535689737    0.6776522101395770
     0.7490531180742508    0.2484909464310263    0.5002997816334229
     0.7490531180742508    0.7484909464310263    0.3225476442827073
     0.7490531180742508    0.0005621716432174    0.5884395208919742
     0.7490531180742508    0.5005621716432174    0.4106873835412586
 
  0.00000000E+00  0.00000000E+00  0.00000000E+00
  0.00000000E+00  0.00000000E+00  0.00000000E+00
  0.00000000E+00  0.00000000E+00  0.00000000E+00
  0.00000000E+00  0.00000000E+00  0.00000000E+00
  0.00000000E+00  0.00000000E+00  0.00000000E+00
  0.00000000E+00  0.00000000E+00  0.00000000E+00
  0.00000000E+00  0.00000000E+00  0.00000000E+00
  0.00000000E+00  0.00000000E+00  0.00000000E+00
  0.00000000E+00  0.00000000E+00  0.00000000E+00
  0.00000000E+00  0.00000000E+00  0.00000000E+00
  0.00000000E+00  0.00000000E+00  0.00000000E+00
  0.00000000E+00  0.00000000E+00  0.00000000E+00
  0.00000000E+00  0.00000000E+00  0.00000000E+00
  0.00000000E+00  0.00000000E+00  0.00000000E+00
  0.00000000E+00  0.00000000E+00  0.00000000E+00
  0.00000000E+00  0.00000000E+00  0.00000000E+00
  0.00000000E+00  0.00000000E+00  0.00000000E+00
  0.00000000E+00  0.00000000E+00  0.00000000E+00
  0.00000000E+00  0.00000000E+00  0.00000000E+00
  0.00000000E+00  0.00000000E+00  0.00000000E+00
  0.00000000E+00  0.00000000E+00  0.00000000E+00
  0.00000000E+00  0.00000000E+00  0.00000000E+00
  0.00000000E+00  0.00000000E+00  0.00000000E+00
  0.00000000E+00  0.00000000E+00  0.00000000E+00
  0.00000000E+00  0.00000000E+00  0.00000000E+00
  0.00000000E+00  0.00000000E+00  0.00000000E+00
  0.00000000E+00  0.00000000E+00  0.00000000E+00
  0.00000000E+00  0.00000000E+00  0.00000000E+00
  0.00000000E+00  0.00000000E+00  0.00000000E+00
  0.00000000E+00  0.00000000E+00  0.00000000E+00
  0.00000000E+00  0.00000000E+00  0.00000000E+00
  0.00000000E+00  0.00000000E+00  0.00000000E+00
