Generated by VASPKIT code
 1.000000
    5.6069519683837870    0.0000000000000000    0.0000000000000000
    0.0000000000000006    9.9681310671291463    0.0000000000000000
    0.0000000000000006   -3.6604470762088610   26.0804698346225585
   Ga   Ti   Al
     2    14    16
Direct
    0.0000000000000000    0.0000000000000000    0.3223477898604236    Ga001
    0.0000000000000000    0.5000000000000000    0.5000999272111405    Ga002
    0.0000000000000000    0.7500000000000000    0.4112238585357820    Ti001
    0.0000000000000000    0.2500000000000000    0.5889759958864988    Ti002
    0.0000000000000000    0.2500000000000000    0.4112238585357820    Ti003
    0.0000000000000000    0.7500000000000000    0.5889759958864988    Ti004
    0.0000000000000000    0.0000000000000000    0.5000999272111405    Ti005
    0.0000000000000000    0.5000000000000000    0.3223477898604236    Ti006
    0.5000000000000000    0.0000000000000000    0.3223477898604236    Ti007
    0.5000000000000000    0.4999999999999999    0.5000999272111404    Ti008
    0.5000000000000000    0.7500000000000000    0.4112238585357820    Ti009
    0.5000000000000000    0.2500000000000000    0.5889759958864988    Ti010
    0.5000000000000000    0.2500000000000000    0.4112238585357820    Ti011
    0.5000000000000000    0.7500000000000000    0.5889759958864988    Ti012
    0.5000000000000000    0.0000000000000000    0.5000999272111405    Ti013
    0.5000000000000000    0.4999999999999999    0.3223477898604236    Ti014
    0.2509468819257499    0.9994378283567793    0.4117603335303045    Al001
    0.2509468819257499    0.4994378283567792    0.5895124708810214    Al002
    0.2509468819257499    0.7515090535689706    0.4999000727888595    Al003
    0.2509468819257499    0.2515090535689706    0.6776522101395764    Al004
    0.2509468819257499    0.2484909464310293    0.5002997816334213    Al005
    0.2509468819257499    0.7484909464310294    0.3225476442827044    Al006
    0.2509468819257499    0.0005621716432207    0.5884395208919763    Al007
    0.2509468819257499    0.5005621716432207    0.4106873835412594    Al008
    0.7490531180742501    0.9994378283567793    0.4117603335303045    Al009
    0.7490531180742501    0.4994378283567793    0.5895124708810214    Al010
    0.7490531180742501    0.7515090535689707    0.4999000727888595    Al011
    0.7490531180742501    0.2515090535689706    0.6776522101395764    Al012
    0.7490531180742501    0.2484909464310294    0.5002997816334214    Al013
    0.7490531180742501    0.7484909464310295    0.3225476442827044    Al014
    0.7490531180742501    0.0005621716432207    0.5884395208919763    Al015
    0.7490531180742501    0.5005621716432208    0.4106873835412594    Al016
