Generated by VASPKIT code               
   1.00000000000000     
     5.6452860610502613    0.0000000000000000    0.0000000000000000
     0.0000000000000005    8.1099824618697856    0.0000000000000000
     0.0000000000000003    0.0000000000000003   19.2328515445222337
   Ti   Ga   Al
     8     1     7
Direct
     0.0001971558665801    0.0006171923137686    0.3899577752492007
     0.0001971558665801    0.4993828076862314    0.3899577752492007
     0.4998028441334199    0.0006171923137686    0.3899577752492007
     0.4998028441334199    0.4993828076862314    0.3899577752492007
     0.0001971558665801    0.0006171923137686    0.5366035818507413
     0.0001971558665801    0.4993828076862314    0.5366035818507413
     0.4998028441334199    0.0006171923137686    0.5366035818507413
     0.4998028441334199    0.4993828076862314    0.5366035818507413
     0.2500000000000000    0.2500000000000000    0.4632806785499710
     0.2500000000000000    0.7500000000000000    0.4632806785499710
     0.7500000000000000    0.2500000000000000    0.4632806785499710
     0.7500000000000000    0.7500000000000000    0.4632806785499710
     0.2500000000000000    0.2500000000000000    0.6100422247507993
     0.2500000000000000    0.7500000000000000    0.6100422247507993
     0.7500000000000000    0.2500000000000000    0.6100422247507993
     0.7500000000000000    0.7500000000000000    0.6100422247507993
 
  0.00000000E+00  0.00000000E+00  0.00000000E+00
  0.00000000E+00  0.00000000E+00  0.00000000E+00
  0.00000000E+00  0.00000000E+00  0.00000000E+00
  0.00000000E+00  0.00000000E+00  0.00000000E+00
  0.00000000E+00  0.00000000E+00  0.00000000E+00
  0.00000000E+00  0.00000000E+00  0.00000000E+00
  0.00000000E+00  0.00000000E+00  0.00000000E+00
  0.00000000E+00  0.00000000E+00  0.00000000E+00
  0.00000000E+00  0.00000000E+00  0.00000000E+00
  0.00000000E+00  0.00000000E+00  0.00000000E+00
  0.00000000E+00  0.00000000E+00  0.00000000E+00
  0.00000000E+00  0.00000000E+00  0.00000000E+00
  0.00000000E+00  0.00000000E+00  0.00000000E+00
  0.00000000E+00  0.00000000E+00  0.00000000E+00
  0.00000000E+00  0.00000000E+00  0.00000000E+00
  0.00000000E+00  0.00000000E+00  0.00000000E+00
