Generated by VASPKIT code
 1.000000
    5.6452860610502613    0.0000000000000000    0.0000000000000000
    0.0000000000000005    8.1099824618697856    0.0000000000000000
    0.0000000000000003    0.0000000000000003   19.2328515445222337
   Ti   Ga   Al
     8     1     7
Direct
    0.0001971558665805    0.0006171923137651    0.3899577752491984    Ti001
    0.0001971558665805    0.4993828076862349    0.3899577752491984    Ti002
    0.4998028441334195    0.0006171923137651    0.3899577752491984    Ti003
    0.4998028441334195    0.4993828076862349    0.3899577752491984    Ti004
    0.0001971558665805    0.0006171923137651    0.5366035818507421    Ti005
    0.0001971558665805    0.4993828076862349    0.5366035818507421    Ti006
    0.4998028441334195    0.0006171923137651    0.5366035818507421    Ti007
    0.4998028441334195    0.4993828076862349    0.5366035818507421    Ti008
    0.2500000000000000    0.2500000000000000    0.4632806785499702    Ga001
    0.2500000000000000    0.7500000000000001    0.4632806785499702    Al001
    0.7500000000000000    0.2500000000000000    0.4632806785499702    Al002
    0.7500000000000000    0.7500000000000001    0.4632806785499702    Al003
    0.2500000000000000    0.2500000000000000    0.6100422247508016    Al004
    0.2500000000000000    0.7500000000000001    0.6100422247508016    Al005
    0.7500000000000000    0.2500000000000000    0.6100422247508016    Al006
    0.7500000000000000    0.7500000000000001    0.6100422247508016    Al007
