Ti1 Al1                                 
   1.00000000000000     
     5.6069519683837870    0.0000000000000000   -0.0000000000000000
     0.0000000000000000    5.6069519683837870    0.0000000000000000
    -0.0000000000000000    0.0000000000000000    8.2417065341895324
   Ga   Ti   Al
     1     7     8
Direct
    -0.0000000000000000   -0.0000000000000000   -0.0000000000000000
    -0.0000000000000000   -0.0000000000000000    0.5000000000000000
    -0.0000000000000000    0.5000000000000000   -0.0000000000000000
    -0.0000000000000000    0.5000000000000000    0.5000000000000000
     0.5000000000000000   -0.0000000000000000   -0.0000000000000000
     0.5000000000000000   -0.0000000000000000    0.5000000000000000
     0.5000000000000000    0.5000000000000000   -0.0000000000000000
     0.5000000000000000    0.5000000000000000    0.5000000000000000
     0.2509468819257499    0.2509468819257499    0.2520712252121913
     0.2509468819257499    0.2509468819257499    0.7479287747878086
     0.2509468819257499    0.7490531180742500    0.2520712252121913
     0.2509468819257499    0.7490531180742500    0.7479287747878086
     0.7490531180742500    0.2509468819257499    0.2520712252121913
     0.7490531180742500    0.2509468819257499    0.7479287747878086
     0.7490531180742500    0.7490531180742500    0.2520712252121913
     0.7490531180742500    0.7490531180742500    0.7479287747878086
 
  0.00000000E+00  0.00000000E+00  0.00000000E+00
  0.00000000E+00  0.00000000E+00  0.00000000E+00
  0.00000000E+00  0.00000000E+00  0.00000000E+00
  0.00000000E+00  0.00000000E+00  0.00000000E+00
  0.00000000E+00  0.00000000E+00  0.00000000E+00
  0.00000000E+00  0.00000000E+00  0.00000000E+00
  0.00000000E+00  0.00000000E+00  0.00000000E+00
  0.00000000E+00  0.00000000E+00  0.00000000E+00
  0.00000000E+00  0.00000000E+00  0.00000000E+00
  0.00000000E+00  0.00000000E+00  0.00000000E+00
  0.00000000E+00  0.00000000E+00  0.00000000E+00
  0.00000000E+00  0.00000000E+00  0.00000000E+00
  0.00000000E+00  0.00000000E+00  0.00000000E+00
  0.00000000E+00  0.00000000E+00  0.00000000E+00
  0.00000000E+00  0.00000000E+00  0.00000000E+00
  0.00000000E+00  0.00000000E+00  0.00000000E+00
