Generated by VASPKIT code               
   1.00000000000000     
     5.6452860610502613    0.0000000000000000    0.0000000000000000
     0.0000000000000006    9.8813496164706116    0.0000000000000000
     0.0000000000000006   -3.4309646087450498   25.9730774963423023
   Ti   Ga   Al
    16     2    14
Direct
     0.0001971558665801    0.9997899817764093    0.3218296770734952
     0.0001971558665801    0.4997899817764093    0.5002179051934448
     0.0001971558665801    0.7504071740901708    0.4108035914469497
     0.0001971558665801    0.2504071740901708    0.5891918195668993
     0.0001971558665801    0.2495928259098292    0.4109534505620616
     0.0001971558665801    0.7495928259098292    0.5893416786820183
     0.0001971558665801    0.0002100182235907    0.4999273649355160
     0.0001971558665801    0.5002100182235907    0.6783155930554727
     0.4998028441334199    0.9997899817764093    0.3218296770734952
     0.4998028441334199    0.4997899817764093    0.5002179051934448
     0.4998028441334199    0.7504071740901708    0.4108035914469497
     0.4998028441334199    0.2504071740901708    0.5891918195668993
     0.4998028441334199    0.2495928259098292    0.4109534505620616
     0.4998028441334199    0.7495928259098292    0.5893416786820183
     0.4998028441334199    0.0002100182235907    0.4999273649355160
     0.4998028441334199    0.5002100182235907    0.6783155930554727
     0.2500000000000000    0.0000000000000000    0.4108785210045056
     0.2500000000000000    0.5000000000000000    0.5892667491244623
     0.2500000000000000    0.7500000000000000    0.5000726350644840
     0.2500000000000000    0.2500000000000000    0.3216844069445273
     0.2500000000000000    0.2500000000000000    0.5000726350644840
     0.2500000000000000    0.7500000000000000    0.3216844069445273
     0.2500000000000000    0.0000000000000000    0.5892667491244623
     0.2500000000000000    0.5000000000000000    0.4108785210045056
     0.7500000000000000    0.0000000000000000    0.4108785210045056
     0.7500000000000000    0.5000000000000000    0.5892667491244623
     0.7500000000000000    0.7500000000000000    0.5000726350644840
     0.7500000000000000    0.2500000000000000    0.3216844069445273
     0.7500000000000000    0.2500000000000000    0.5000726350644840
     0.7500000000000000    0.7500000000000000    0.3216844069445273
     0.7500000000000000    0.0000000000000000    0.5892667491244623
     0.7500000000000000    0.5000000000000000    0.4108785210045056
 
  0.00000000E+00  0.00000000E+00  0.00000000E+00
  0.00000000E+00  0.00000000E+00  0.00000000E+00
  0.00000000E+00  0.00000000E+00  0.00000000E+00
  0.00000000E+00  0.00000000E+00  0.00000000E+00
  0.00000000E+00  0.00000000E+00  0.00000000E+00
  0.00000000E+00  0.00000000E+00  0.00000000E+00
  0.00000000E+00  0.00000000E+00  0.00000000E+00
  0.00000000E+00  0.00000000E+00  0.00000000E+00
  0.00000000E+00  0.00000000E+00  0.00000000E+00
  0.00000000E+00  0.00000000E+00  0.00000000E+00
  0.00000000E+00  0.00000000E+00  0.00000000E+00
  0.00000000E+00  0.00000000E+00  0.00000000E+00
  0.00000000E+00  0.00000000E+00  0.00000000E+00
  0.00000000E+00  0.00000000E+00  0.00000000E+00
  0.00000000E+00  0.00000000E+00  0.00000000E+00
  0.00000000E+00  0.00000000E+00  0.00000000E+00
  0.00000000E+00  0.00000000E+00  0.00000000E+00
  0.00000000E+00  0.00000000E+00  0.00000000E+00
  0.00000000E+00  0.00000000E+00  0.00000000E+00
  0.00000000E+00  0.00000000E+00  0.00000000E+00
  0.00000000E+00  0.00000000E+00  0.00000000E+00
  0.00000000E+00  0.00000000E+00  0.00000000E+00
  0.00000000E+00  0.00000000E+00  0.00000000E+00
  0.00000000E+00  0.00000000E+00  0.00000000E+00
  0.00000000E+00  0.00000000E+00  0.00000000E+00
  0.00000000E+00  0.00000000E+00  0.00000000E+00
  0.00000000E+00  0.00000000E+00  0.00000000E+00
  0.00000000E+00  0.00000000E+00  0.00000000E+00
  0.00000000E+00  0.00000000E+00  0.00000000E+00
  0.00000000E+00  0.00000000E+00  0.00000000E+00
  0.00000000E+00  0.00000000E+00  0.00000000E+00
  0.00000000E+00  0.00000000E+00  0.00000000E+00
