0000065828-primitive-cell\(1\0\0)       
   1.00000000000000     
     2.8238000870000000    0.0000000000000000    0.0000000000000000
     0.0000000000000000    4.0703001022000000    0.0000000000000000
     0.0000000000000000    0.0000000000000000   24.8833999633999987
   Ti   Al
     4     4
Direct
     0.0000000000000000    0.0000000000000000    0.3380500080000033
     0.0000000000000000    0.0000000000000000    0.4515399929999973
     0.0000000000000000    0.0000000000000000    0.5650200250000026
     0.0000000000000000    0.0000000000000000    0.6784999970000030
     0.5000000000000000    0.5000000000000000    0.2813099919999971
     0.5000000000000000    0.5000000000000000    0.3947899939999999
     0.5000000000000000    0.5000000000000000    0.5082799790000010
     0.5000000000000000    0.5000000000000000    0.6217600109999992
 
  0.00000000E+00  0.00000000E+00  0.00000000E+00
  0.00000000E+00  0.00000000E+00  0.00000000E+00
  0.00000000E+00  0.00000000E+00  0.00000000E+00
  0.00000000E+00  0.00000000E+00  0.00000000E+00
  0.00000000E+00  0.00000000E+00  0.00000000E+00
  0.00000000E+00  0.00000000E+00  0.00000000E+00
  0.00000000E+00  0.00000000E+00  0.00000000E+00
  0.00000000E+00  0.00000000E+00  0.00000000E+00
