0000065828-primitive-cell\(1\0\0)
1.0
        2.8238000870         0.0000000000         0.0000000000
        0.0000000000         4.0703001022         0.0000000000
        0.0000000000         0.0000000000        24.8833999634
   Ti   Al
    4    4
Direct
     0.000000000         0.000000000         0.338050008
     0.000000000         0.000000000         0.451539993
     0.000000000         0.000000000         0.565020025
     0.000000000         0.000000000         0.678499997
     0.500000000         0.500000000         0.281309992
     0.500000000         0.500000000         0.394789994
     0.500000000         0.500000000         0.508279979
     0.500000000         0.500000000         0.621760011
