K-Spacing Value to Generate K-Mesh: 0.020
0
Gamma
   9   9   6
0.0  0.0  0.0
