Generated by VASPKIT code               
   1.00000000000000     
     7.9294275172628730    0.0000000000000000    0.0000000000000000
     0.0000000000000005    8.2417065341895324    0.0000000000000000
     0.0000000000000005    0.0000000000000005   20.9545788695447968
   Ga   Ti   Al
     2    14    16
Direct
     0.0000000000000000    0.0000000000000000    0.3579169997494134
     0.5000000000000000    0.0000000000000000    0.5471221268633641
     0.0000000000000000    0.5000000000000000    0.3579169997494134
     0.5000000000000000    0.5000000000000000    0.5471221268633641
     0.7500000000000000    0.0000000000000000    0.4525195633063888
     0.2500000000000000    0.0000000000000000    0.6417246904203395
     0.7500000000000000    0.5000000000000000    0.4525195633063888
     0.2500000000000000    0.5000000000000000    0.6417246904203395
     0.2500000000000000    0.0000000000000000    0.4525195633063888
     0.7500000000000000    0.0000000000000000    0.6417246904203395
     0.2500000000000000    0.5000000000000000    0.4525195633063888
     0.7500000000000000    0.5000000000000000    0.6417246904203395
     0.0000000000000000    0.0000000000000000    0.5471221268633641
     0.5000000000000000    0.0000000000000000    0.3579169997494134
     0.0000000000000000    0.5000000000000000    0.5471221268633641
     0.5000000000000000    0.5000000000000000    0.3579169997494134
     0.0000000000000000    0.7479287747878089    0.4528778731366359
     0.5000000000000000    0.7479287747878089    0.6420830002505795
     0.0000000000000000    0.2520712252121911    0.4528778731366359
     0.5000000000000000    0.2520712252121911    0.6420830002505795
     0.7509468819257492    0.7479287747878089    0.5471221268633641
     0.2509468819257492    0.7479287747878089    0.3579169997494134
     0.7509468819257492    0.2520712252121911    0.5471221268633641
     0.2509468819257492    0.2520712252121911    0.3579169997494134
     0.2490531180742508    0.7479287747878089    0.5471221268633641
     0.7490531180742508    0.7479287747878089    0.3579169997494134
     0.2490531180742508    0.2520712252121911    0.5471221268633641
     0.7490531180742508    0.2520712252121911    0.3579169997494134
     0.0000000000000000    0.7479287747878089    0.6413663805900924
     0.5000000000000000    0.7479287747878089    0.4521612534761417
     0.0000000000000000    0.2520712252121911    0.6413663805900924
     0.5000000000000000    0.2520712252121911    0.4521612534761417
 
  0.00000000E+00  0.00000000E+00  0.00000000E+00
  0.00000000E+00  0.00000000E+00  0.00000000E+00
  0.00000000E+00  0.00000000E+00  0.00000000E+00
  0.00000000E+00  0.00000000E+00  0.00000000E+00
  0.00000000E+00  0.00000000E+00  0.00000000E+00
  0.00000000E+00  0.00000000E+00  0.00000000E+00
  0.00000000E+00  0.00000000E+00  0.00000000E+00
  0.00000000E+00  0.00000000E+00  0.00000000E+00
  0.00000000E+00  0.00000000E+00  0.00000000E+00
  0.00000000E+00  0.00000000E+00  0.00000000E+00
  0.00000000E+00  0.00000000E+00  0.00000000E+00
  0.00000000E+00  0.00000000E+00  0.00000000E+00
  0.00000000E+00  0.00000000E+00  0.00000000E+00
  0.00000000E+00  0.00000000E+00  0.00000000E+00
  0.00000000E+00  0.00000000E+00  0.00000000E+00
  0.00000000E+00  0.00000000E+00  0.00000000E+00
  0.00000000E+00  0.00000000E+00  0.00000000E+00
  0.00000000E+00  0.00000000E+00  0.00000000E+00
  0.00000000E+00  0.00000000E+00  0.00000000E+00
  0.00000000E+00  0.00000000E+00  0.00000000E+00
  0.00000000E+00  0.00000000E+00  0.00000000E+00
  0.00000000E+00  0.00000000E+00  0.00000000E+00
  0.00000000E+00  0.00000000E+00  0.00000000E+00
  0.00000000E+00  0.00000000E+00  0.00000000E+00
  0.00000000E+00  0.00000000E+00  0.00000000E+00
  0.00000000E+00  0.00000000E+00  0.00000000E+00
  0.00000000E+00  0.00000000E+00  0.00000000E+00
  0.00000000E+00  0.00000000E+00  0.00000000E+00
  0.00000000E+00  0.00000000E+00  0.00000000E+00
  0.00000000E+00  0.00000000E+00  0.00000000E+00
  0.00000000E+00  0.00000000E+00  0.00000000E+00
  0.00000000E+00  0.00000000E+00  0.00000000E+00
