Generated by VASPKIT code               
   1.00000000000000     
     6.8142890716690037    7.2752389252310907    0.0000000000000000
    -3.1538419954601427    7.2752389252310907    0.0000000000000000
    -3.6604470762088597   -1.5868168495566071   25.7159018675713860
   Ga   Ti   Al
     3    21    24
Direct
     0.0000000000000000    0.0000000000000000    0.3086905262881459
     0.3333333333333357    0.3333333333333357    0.4476243721950937
     0.6666666666666643    0.6666666666666643    0.5865582181020415
     0.6666666666666643    0.1666666666666643    0.3781574492416198
     0.0000000000000000    0.5000000000000000    0.5170912951485676
     0.3333333333333357    0.8333333333333357    0.6560251410555153
     0.1666666666666643    0.1666666666666643    0.3781574492416198
     0.5000000000000000    0.5000000000000000    0.5170912951485676
     0.8333333333333357    0.8333333333333357    0.6560251410555153
     0.8333333333333357    0.3333333333333357    0.4476243721950937
     0.1666666666666643    0.6666666666666643    0.5865582181020415
     0.5000000000000000    0.0000000000000000    0.3086905262881459
     0.1666666666666643    0.6666666666666643    0.3781574492416198
     0.5000000000000000    0.0000000000000000    0.5170912951485676
     0.8333333333333357    0.3333333333333357    0.6560251410555153
     0.8333333333333357    0.8333333333333357    0.4476243721950937
     0.1666666666666643    0.1666666666666643    0.5865582181020415
     0.5000000000000000    0.5000000000000000    0.3086905262881459
     0.3333333333333357    0.8333333333333357    0.4476243721950937
     0.6666666666666643    0.1666666666666643    0.5865582181020415
     0.0000000000000000    0.5000000000000000    0.3086905262881459
     0.0000000000000000    0.0000000000000000    0.5170912951485676
     0.3333333333333357    0.3333333333333357    0.6560251410555153
     0.6666666666666643    0.6666666666666643    0.3781574492416198
     0.9992504378090388    0.0003747810954806    0.4134417818979585
     0.3325837711423745    0.3337081144288163    0.5523756278049063
     0.6659171044757031    0.6670414477621449    0.6913094737118541
     0.6686787380919625    0.1656606309540223    0.4823331782824951
     0.0020120714252911    0.4989939642873509    0.6212670241894429
     0.3353454047586268    0.8323272976206866    0.3433993323755473
     0.1652858498585417    0.1664101931449835    0.4826455969563028
     0.4986191831918703    0.4997435264783121    0.6215794428632506
     0.8319525165252060    0.8330768598116478    0.3437117510493550
     0.8347141501414583    0.3316960430035181    0.5515369933408394
     0.1680474834747940    0.6650293763368538    0.6904708392477872
     0.5013808168081297    0.9983627096701895    0.4126031474338916
     0.1652858498585417    0.6683039569964819    0.4826455969563028
     0.4986191831918703    0.0016372903298105    0.6215794428632506
     0.8319525165252060    0.3349706236631462    0.3437117510493550
     0.8347141501414583    0.8335898068550165    0.5515369933408394
     0.1680474834747940    0.1669231401883522    0.6904708392477872
     0.5013808168081297    0.5002564735216879    0.4126031474338916
     0.3313212619080375    0.8343393690459777    0.5518494120146471
     0.6646545952413732    0.1676727023793134    0.6907832579215949
     0.9979879285747089    0.5010060357126491    0.4129155661076993
     0.0007495621909612    0.9996252189045194    0.6207408083991837
     0.3340828955242969    0.3329585522378551    0.3428731165852881
     0.6674162288576255    0.6662918855711837    0.4818069624922359
 
  0.00000000E+00  0.00000000E+00  0.00000000E+00
  0.00000000E+00  0.00000000E+00  0.00000000E+00
  0.00000000E+00  0.00000000E+00  0.00000000E+00
  0.00000000E+00  0.00000000E+00  0.00000000E+00
  0.00000000E+00  0.00000000E+00  0.00000000E+00
  0.00000000E+00  0.00000000E+00  0.00000000E+00
  0.00000000E+00  0.00000000E+00  0.00000000E+00
  0.00000000E+00  0.00000000E+00  0.00000000E+00
  0.00000000E+00  0.00000000E+00  0.00000000E+00
  0.00000000E+00  0.00000000E+00  0.00000000E+00
  0.00000000E+00  0.00000000E+00  0.00000000E+00
  0.00000000E+00  0.00000000E+00  0.00000000E+00
  0.00000000E+00  0.00000000E+00  0.00000000E+00
  0.00000000E+00  0.00000000E+00  0.00000000E+00
  0.00000000E+00  0.00000000E+00  0.00000000E+00
  0.00000000E+00  0.00000000E+00  0.00000000E+00
  0.00000000E+00  0.00000000E+00  0.00000000E+00
  0.00000000E+00  0.00000000E+00  0.00000000E+00
  0.00000000E+00  0.00000000E+00  0.00000000E+00
  0.00000000E+00  0.00000000E+00  0.00000000E+00
  0.00000000E+00  0.00000000E+00  0.00000000E+00
  0.00000000E+00  0.00000000E+00  0.00000000E+00
  0.00000000E+00  0.00000000E+00  0.00000000E+00
  0.00000000E+00  0.00000000E+00  0.00000000E+00
  0.00000000E+00  0.00000000E+00  0.00000000E+00
  0.00000000E+00  0.00000000E+00  0.00000000E+00
  0.00000000E+00  0.00000000E+00  0.00000000E+00
  0.00000000E+00  0.00000000E+00  0.00000000E+00
  0.00000000E+00  0.00000000E+00  0.00000000E+00
  0.00000000E+00  0.00000000E+00  0.00000000E+00
  0.00000000E+00  0.00000000E+00  0.00000000E+00
  0.00000000E+00  0.00000000E+00  0.00000000E+00
  0.00000000E+00  0.00000000E+00  0.00000000E+00
  0.00000000E+00  0.00000000E+00  0.00000000E+00
  0.00000000E+00  0.00000000E+00  0.00000000E+00
  0.00000000E+00  0.00000000E+00  0.00000000E+00
  0.00000000E+00  0.00000000E+00  0.00000000E+00
  0.00000000E+00  0.00000000E+00  0.00000000E+00
  0.00000000E+00  0.00000000E+00  0.00000000E+00
  0.00000000E+00  0.00000000E+00  0.00000000E+00
  0.00000000E+00  0.00000000E+00  0.00000000E+00
  0.00000000E+00  0.00000000E+00  0.00000000E+00
  0.00000000E+00  0.00000000E+00  0.00000000E+00
  0.00000000E+00  0.00000000E+00  0.00000000E+00
  0.00000000E+00  0.00000000E+00  0.00000000E+00
  0.00000000E+00  0.00000000E+00  0.00000000E+00
  0.00000000E+00  0.00000000E+00  0.00000000E+00
  0.00000000E+00  0.00000000E+00  0.00000000E+00
