Generated by VASPKIT code
 1.000000
    6.8142890716690037    7.2752389252310907    0.0000000000000000
   -3.1538419954601427    7.2752389252310907    0.0000000000000000
   -3.6604470762088597   -1.5868168495566071   25.7159018675713860
   Ga   Ti   Al
     3    21    24
Direct
    0.0000000000000001    0.0000000000000000    0.3086905262881479    Ga001
    0.3333333333333335    0.3333333333333333    0.4476243721950957    Ga002
    0.6666666666666667    0.6666666666666667    0.5865582181020436    Ga003
    0.6666666666666670    0.1666666666666665    0.3781574492416218    Ti001
    0.0000000000000002    0.5000000000000000    0.5170912951485697    Ti002
    0.3333333333333335    0.8333333333333333    0.6560251410555176    Ti003
    0.1666666666666665    0.1666666666666665    0.3781574492416218    Ti004
    0.5000000000000000    0.5000000000000000    0.5170912951485697    Ti005
    0.8333333333333334    0.8333333333333334    0.6560251410555176    Ti006
    0.8333333333333335    0.3333333333333333    0.4476243721950957    Ti007
    0.1666666666666667    0.6666666666666667    0.5865582181020437    Ti008
    0.5000000000000000    0.0000000000000000    0.3086905262881479    Ti009
    0.1666666666666670    0.6666666666666666    0.3781574492416218    Ti010
    0.5000000000000000    0.0000000000000000    0.5170912951485697    Ti011
    0.8333333333333335    0.3333333333333334    0.6560251410555176    Ti012
    0.8333333333333335    0.8333333333333333    0.4476243721950957    Ti013
    0.1666666666666665    0.1666666666666667    0.5865582181020437    Ti014
    0.5000000000000000    0.5000000000000000    0.3086905262881479    Ti015
    0.3333333333333334    0.8333333333333333    0.4476243721950957    Ti016
    0.6666666666666670    0.1666666666666665    0.5865582181020437    Ti017
    0.0000000000000002    0.5000000000000000    0.3086905262881479    Ti018
    0.0000000000000000    0.0000000000000000    0.5170912951485697    Ti019
    0.3333333333333335    0.3333333333333334    0.6560251410555176    Ti020
    0.6666666666666667    0.6666666666666666    0.3781574492416218    Ti021
    0.9992504378090392    0.0003747810954804    0.4134417818979563    Al001
    0.3325837711423727    0.3337081144288138    0.5523756278049042    Al002
    0.6659171044757057    0.6670414477621471    0.6913094737118521    Al003
    0.6686787380919608    0.1656606309540196    0.4823331782824920    Al004
    0.0020120714252942    0.4989939642873529    0.6212670241894398    Al005
    0.3353454047586275    0.8323272976206864    0.3433993323755441    Al006
    0.1652858498585392    0.1664101931449805    0.4826455969563019    Al007
    0.4986191831918725    0.4997435264783139    0.6215794428632497    Al008
    0.8319525165252057    0.8330768598116473    0.3437117510493540    Al009
    0.8347141501414610    0.3316960430035196    0.5515369933408375    Al010
    0.1680474834747940    0.6650293763368530    0.6904708392477854    Al011
    0.5013808168081275    0.9983627096701864    0.4126031474338896    Al012
    0.1652858498585390    0.6683039569964804    0.4826455969563018    Al013
    0.4986191831918727    0.0016372903298136    0.6215794428632497    Al014
    0.8319525165252057    0.3349706236631471    0.3437117510493540    Al015
    0.8347141501414609    0.8335898068550195    0.5515369933408375    Al016
    0.1680474834747943    0.1669231401883529    0.6904708392477854    Al017
    0.5013808168081275    0.5002564735216861    0.4126031474338896    Al018
    0.3313212619080392    0.8343393690459804    0.5518494120146473    Al019
    0.6646545952413727    0.1676727023793136    0.6907832579215952    Al020
    0.9979879285747060    0.5010060357126471    0.4129155661076995    Al021
    0.0007495621909610    0.9996252189045195    0.6207408083991830    Al022
    0.3340828955242943    0.3329585522378529    0.3428731165852872    Al023
    0.6674162288576276    0.6662918855711862    0.4818069624922351    Al024
