Generated by VASPKIT code               
   1.00000000000000     
     7.9836401110130675    0.0000000000000000    0.0000000000000000
     0.0000000000000005    8.1099824618697856    0.0000000000000000
     0.0000000000000005    0.0000000000000005   22.9820660895285158
   Ti   Ga   Al
    16     2    14
Direct
     0.0000000000000000    0.9993828076862314    0.3264099055438052
     0.5000000000000000    0.9993828076862314    0.5001027336801513
     0.0000000000000000    0.5006171923137686    0.3264099055438052
     0.5000000000000000    0.5006171923137686    0.5001027336801513
     0.7501971558665801    0.9993828076862314    0.4131878304918786
     0.2501971558665801    0.9993828076862314    0.5868806586282176
     0.7501971558665801    0.5006171923137686    0.4131878304918786
     0.2501971558665801    0.5006171923137686    0.5868806586282176
     0.2498028441334199    0.9993828076862314    0.4131878304918786
     0.7498028441334199    0.9993828076862314    0.5868806586282176
     0.2498028441334199    0.5006171923137686    0.4131878304918786
     0.7498028441334199    0.5006171923137686    0.5868806586282176
     0.0000000000000000    0.9993828076862314    0.4999657554399519
     0.5000000000000000    0.9993828076862314    0.6736585835762909
     0.0000000000000000    0.5006171923137686    0.4999657554399519
     0.5000000000000000    0.5006171923137686    0.6736585835762909
     0.0000000000000000    0.7500000000000000    0.4131878304918786
     0.5000000000000000    0.7500000000000000    0.5868806586282176
     0.0000000000000000    0.2500000000000000    0.4131878304918786
     0.5000000000000000    0.2500000000000000    0.5868806586282176
     0.7500000000000000    0.7500000000000000    0.5000342445600481
     0.2500000000000000    0.7500000000000000    0.3263414164237091
     0.7500000000000000    0.2500000000000000    0.5000342445600481
     0.2500000000000000    0.2500000000000000    0.3263414164237091
     0.2500000000000000    0.7500000000000000    0.5000342445600481
     0.7500000000000000    0.7500000000000000    0.3263414164237091
     0.2500000000000000    0.2500000000000000    0.5000342445600481
     0.7500000000000000    0.2500000000000000    0.3263414164237091
     0.0000000000000000    0.7500000000000000    0.5868806586282176
     0.5000000000000000    0.7500000000000000    0.4131878304918786
     0.0000000000000000    0.2500000000000000    0.5868806586282176
     0.5000000000000000    0.2500000000000000    0.4131878304918786
 
  0.00000000E+00  0.00000000E+00  0.00000000E+00
  0.00000000E+00  0.00000000E+00  0.00000000E+00
  0.00000000E+00  0.00000000E+00  0.00000000E+00
  0.00000000E+00  0.00000000E+00  0.00000000E+00
  0.00000000E+00  0.00000000E+00  0.00000000E+00
  0.00000000E+00  0.00000000E+00  0.00000000E+00
  0.00000000E+00  0.00000000E+00  0.00000000E+00
  0.00000000E+00  0.00000000E+00  0.00000000E+00
  0.00000000E+00  0.00000000E+00  0.00000000E+00
  0.00000000E+00  0.00000000E+00  0.00000000E+00
  0.00000000E+00  0.00000000E+00  0.00000000E+00
  0.00000000E+00  0.00000000E+00  0.00000000E+00
  0.00000000E+00  0.00000000E+00  0.00000000E+00
  0.00000000E+00  0.00000000E+00  0.00000000E+00
  0.00000000E+00  0.00000000E+00  0.00000000E+00
  0.00000000E+00  0.00000000E+00  0.00000000E+00
  0.00000000E+00  0.00000000E+00  0.00000000E+00
  0.00000000E+00  0.00000000E+00  0.00000000E+00
  0.00000000E+00  0.00000000E+00  0.00000000E+00
  0.00000000E+00  0.00000000E+00  0.00000000E+00
  0.00000000E+00  0.00000000E+00  0.00000000E+00
  0.00000000E+00  0.00000000E+00  0.00000000E+00
  0.00000000E+00  0.00000000E+00  0.00000000E+00
  0.00000000E+00  0.00000000E+00  0.00000000E+00
  0.00000000E+00  0.00000000E+00  0.00000000E+00
  0.00000000E+00  0.00000000E+00  0.00000000E+00
  0.00000000E+00  0.00000000E+00  0.00000000E+00
  0.00000000E+00  0.00000000E+00  0.00000000E+00
  0.00000000E+00  0.00000000E+00  0.00000000E+00
  0.00000000E+00  0.00000000E+00  0.00000000E+00
  0.00000000E+00  0.00000000E+00  0.00000000E+00
  0.00000000E+00  0.00000000E+00  0.00000000E+00
