Generated by VASPKIT code
 1.000000
    7.9836401110130675    0.0000000000000000    0.0000000000000000
    0.0000000000000005    8.1099824618697856    0.0000000000000000
    0.0000000000000005    0.0000000000000005   22.9820660895285158
   Ti   Ga   Al
    16     2    14
Direct
    0.0000000000000000    0.9993828076862349    0.3264099055438079    Ti001
    0.5000000000000001    0.9993828076862349    0.5001027336801501    Ti002
    0.0000000000000000    0.5006171923137651    0.3264099055438079    Ti003
    0.5000000000000001    0.5006171923137651    0.5001027336801501    Ti004
    0.7501971558665806    0.9993828076862349    0.4131878304918789    Ti005
    0.2501971558665806    0.9993828076862349    0.5868806586282211    Ti006
    0.7501971558665806    0.5006171923137651    0.4131878304918789    Ti007
    0.2501971558665806    0.5006171923137651    0.5868806586282211    Ti008
    0.2498028441334195    0.9993828076862349    0.4131878304918789    Ti009
    0.7498028441334196    0.9993828076862349    0.5868806586282210    Ti010
    0.2498028441334195    0.5006171923137651    0.4131878304918789    Ti011
    0.7498028441334196    0.5006171923137651    0.5868806586282211    Ti012
    0.0000000000000000    0.9993828076862349    0.4999657554399499    Ti013
    0.5000000000000001    0.9993828076862349    0.6736585835762922    Ti014
    0.0000000000000000    0.5006171923137651    0.4999657554399499    Ti015
    0.5000000000000001    0.5006171923137651    0.6736585835762922    Ti016
    0.0000000000000000    0.7500000000000000    0.4131878304918789    Ga001
    0.5000000000000001    0.7500000000000000    0.5868806586282211    Ga002
    0.0000000000000000    0.2500000000000000    0.4131878304918789    Al001
    0.5000000000000001    0.2500000000000000    0.5868806586282211    Al002
    0.7500000000000001    0.7500000000000000    0.5000342445600501    Al003
    0.2500000000000001    0.7500000000000000    0.3263414164237078    Al004
    0.7500000000000001    0.2500000000000000    0.5000342445600500    Al005
    0.2500000000000001    0.2500000000000000    0.3263414164237078    Al006
    0.2500000000000001    0.7500000000000000    0.5000342445600500    Al007
    0.7500000000000001    0.7500000000000000    0.3263414164237078    Al008
    0.2500000000000001    0.2500000000000000    0.5000342445600501    Al009
    0.7500000000000001    0.2500000000000000    0.3263414164237078    Al010
    0.0000000000000000    0.7500000000000000    0.5868806586282211    Al011
    0.5000000000000001    0.7500000000000000    0.4131878304918789    Al012
    0.0000000000000000    0.2500000000000000    0.5868806586282211    Al013
    0.5000000000000001    0.2500000000000000    0.4131878304918789    Al014
