0000065828-primitive-cell\(2\0\2)
1.0
        4.9538998604         0.0000000000         0.0000000000
        0.0000000000         2.8238000870         0.0000000000
        0.0000000000         0.0000000000        17.3201007843
   Ti   Al
    2    2
Direct
     0.675080001         0.000000000         0.404150009
     0.000000000         0.000000000         0.538110018
     0.175080001         0.500000000         0.404150009
     0.500000000         0.500000000         0.538110018
