Ti1 Al1                                 
   1.00000000000000     
     5.6476373671999998    0.0000000000000000    0.0000000000000000
     0.0000000000000000    5.6476373671999998    0.0000000000000000
     0.0000000000000000    0.0000000000000000    8.1406660080000002
   Ti   Al   Ga
     8     8     1
Direct
     0.0000000000000000    0.0000000000000000    0.0000000000000000
     0.0000000000000000    0.0000000000000000    0.5000000000000000
     0.0000000000000000    0.5000000000000000    0.0000000000000000
     0.0000000000000000    0.5000000000000000    0.5000000000000000
     0.5000000000000000    0.0000000000000000    0.0000000000000000
     0.5000000000000000    0.0000000000000000    0.5000000000000000
     0.5000000000000000    0.5000000000000000    0.0000000000000000
     0.5000000000000000    0.5000000000000000    0.5000000000000000
     0.2500000000000000    0.2500000000000000    0.2500000000000000
     0.2500000000000000    0.2500000000000000    0.7500000000000000
     0.2500000000000000    0.7500000000000000    0.2500000000000000
     0.2500000000000000    0.7500000000000000    0.7500000000000000
     0.7500000000000000    0.2500000000000000    0.2500000000000000
     0.7500000000000000    0.2500000000000000    0.7500000000000000
     0.7500000000000000    0.7500000000000000    0.2500000000000000
     0.7500000000000000    0.7500000000000000    0.7500000000000000
     0.5                   0.5                   0.75
 
  0.00000000E+00  0.00000000E+00  0.00000000E+00
  0.00000000E+00  0.00000000E+00  0.00000000E+00
  0.00000000E+00  0.00000000E+00  0.00000000E+00
  0.00000000E+00  0.00000000E+00  0.00000000E+00
  0.00000000E+00  0.00000000E+00  0.00000000E+00
  0.00000000E+00  0.00000000E+00  0.00000000E+00
  0.00000000E+00  0.00000000E+00  0.00000000E+00
  0.00000000E+00  0.00000000E+00  0.00000000E+00
  0.00000000E+00  0.00000000E+00  0.00000000E+00
  0.00000000E+00  0.00000000E+00  0.00000000E+00
  0.00000000E+00  0.00000000E+00  0.00000000E+00
  0.00000000E+00  0.00000000E+00  0.00000000E+00
  0.00000000E+00  0.00000000E+00  0.00000000E+00
  0.00000000E+00  0.00000000E+00  0.00000000E+00
  0.00000000E+00  0.00000000E+00  0.00000000E+00
  0.00000000E+00  0.00000000E+00  0.00000000E+00
  0.00000000E+00  0.00000000E+00  0.00000000E+00
