Ti1 Al1                                 
   1.00000000000000     
     5.6452860610502613   -0.0000000000000000    0.0000000000000000
     0.0000000000000000    5.6452860610502613    0.0000000000000000
     0.0000000000000000    0.0000000000000000    8.1099824618697856
   Ti   Ga   Al
     8     1     7
Direct
     0.0001971558665805    0.0001971558665805    0.0006171923137651
     0.0001971558665805    0.0001971558665805    0.4993828076862349
     0.0001971558665805    0.4998028441334195    0.0006171923137651
     0.0001971558665805    0.4998028441334195    0.4993828076862349
     0.4998028441334195    0.0001971558665805    0.0006171923137651
     0.4998028441334195    0.0001971558665805    0.4993828076862349
     0.4998028441334195    0.4998028441334195    0.0006171923137651
     0.4998028441334195    0.4998028441334195    0.4993828076862349
     0.2500000000000000    0.2500000000000000    0.2500000000000000
     0.2500000000000000    0.2500000000000000    0.7500000000000000
     0.2500000000000000    0.7500000000000000    0.2500000000000000
     0.2500000000000000    0.7500000000000000    0.7500000000000000
     0.7500000000000000    0.2500000000000000    0.2500000000000000
     0.7500000000000000    0.2500000000000000    0.7500000000000000
     0.7500000000000000    0.7500000000000000    0.2500000000000000
     0.7500000000000000    0.7500000000000000    0.7500000000000000
 
  0.00000000E+00  0.00000000E+00  0.00000000E+00
  0.00000000E+00  0.00000000E+00  0.00000000E+00
  0.00000000E+00  0.00000000E+00  0.00000000E+00
  0.00000000E+00  0.00000000E+00  0.00000000E+00
  0.00000000E+00  0.00000000E+00  0.00000000E+00
  0.00000000E+00  0.00000000E+00  0.00000000E+00
  0.00000000E+00  0.00000000E+00  0.00000000E+00
  0.00000000E+00  0.00000000E+00  0.00000000E+00
  0.00000000E+00  0.00000000E+00  0.00000000E+00
  0.00000000E+00  0.00000000E+00  0.00000000E+00
  0.00000000E+00  0.00000000E+00  0.00000000E+00
  0.00000000E+00  0.00000000E+00  0.00000000E+00
  0.00000000E+00  0.00000000E+00  0.00000000E+00
  0.00000000E+00  0.00000000E+00  0.00000000E+00
  0.00000000E+00  0.00000000E+00  0.00000000E+00
  0.00000000E+00  0.00000000E+00  0.00000000E+00
