Generated by VASPKIT code               
   1.00000000000000     
     6.6561571126078301    7.3031940091444989    0.0000000000000000
    -3.2251925038627816    7.3031940091444989    0.0000000000000000
    -3.4309646087450494   -1.5151619035846011   29.9250692821179456
   Ti   Ga   Al
    24     3    21
Direct
     0.9997199757018791    0.0001400121490605    0.3206221850326045
     0.3330533090352077    0.3334733454823962    0.4403038312830034
     0.6663866423685434    0.6668066788157248    0.5599854775334094
     0.6672095654535610    0.1663952172732195    0.3803152749734764
     0.0005428987868967    0.4997285506065481    0.4999969212238753
     0.3338762321202324    0.8330618839398838    0.6196785674742813
     0.1662552051241590    0.1666752415713404    0.3804158162804399
     0.4995885384574876    0.5000085749046761    0.5000974625308459
     0.8329218717908233    0.8333419082380047    0.6197791087812448
     0.8337447948758410    0.3329304466954994    0.4401089062213117
     0.1670781282091767    0.6662637800288280    0.5597905524717177
     0.5004114615425124    0.9995971133621637    0.6794721987221166
     0.1662552051241590    0.6670695533045006    0.3804158162804399
     0.4995885384574876    0.0004028866378363    0.5000974625308459
     0.8329218717908233    0.3337362199711720    0.6197791087812448
     0.8337447948758410    0.8333247584286596    0.4401089062213117
     0.1670781282091767    0.1666580917619953    0.5597905524717177
     0.5004114615425124    0.4999914250953239    0.6794721987221166
     0.3327904345464390    0.8336047827267805    0.4402094475282823
     0.6661237678797676    0.1669381160601162    0.5598910937786883
     0.9994571012131033    0.5002714493934519    0.3205278012778834
     0.0002800242981209    0.9998599878509395    0.4999025374691541
     0.3336133576314566    0.3331933211842681    0.6195841837195601
     0.6669466909647923    0.6665266545176038    0.3802208912187552
     0.0000000000000000    0.0000000000000000    0.4102623612508793
     0.3333333333333357    0.3333333333333357    0.5299440075012782
     0.6666666666666643    0.6666666666666643    0.6496256537516842
     0.6666666666666643    0.1666666666666643    0.4701031843760788
     0.0000000000000000    0.5000000000000000    0.5897848306264848
     0.3333333333333357    0.8333333333333357    0.3504215381256799
     0.1666666666666643    0.1666666666666643    0.4701031843760788
     0.5000000000000000    0.5000000000000000    0.5897848306264848
     0.8333333333333357    0.8333333333333357    0.3504215381256799
     0.8333333333333357    0.3333333333333357    0.5299440075012782
     0.1666666666666643    0.6666666666666643    0.6496256537516842
     0.5000000000000000    0.0000000000000000    0.4102623612508793
     0.1666666666666643    0.6666666666666643    0.4701031843760788
     0.5000000000000000    0.0000000000000000    0.5897848306264848
     0.8333333333333357    0.3333333333333357    0.3504215381256799
     0.8333333333333357    0.8333333333333357    0.5299440075012782
     0.1666666666666643    0.1666666666666643    0.6496256537516842
     0.5000000000000000    0.5000000000000000    0.4102623612508793
     0.3333333333333357    0.8333333333333357    0.5299440075012782
     0.6666666666666643    0.1666666666666643    0.6496256537516842
     0.0000000000000000    0.5000000000000000    0.4102623612508793
     0.0000000000000000    0.0000000000000000    0.5897848306264848
     0.3333333333333357    0.3333333333333357    0.3504215381256799
     0.6666666666666643    0.6666666666666643    0.4701031843760788
 
  0.00000000E+00  0.00000000E+00  0.00000000E+00
  0.00000000E+00  0.00000000E+00  0.00000000E+00
  0.00000000E+00  0.00000000E+00  0.00000000E+00
  0.00000000E+00  0.00000000E+00  0.00000000E+00
  0.00000000E+00  0.00000000E+00  0.00000000E+00
  0.00000000E+00  0.00000000E+00  0.00000000E+00
  0.00000000E+00  0.00000000E+00  0.00000000E+00
  0.00000000E+00  0.00000000E+00  0.00000000E+00
  0.00000000E+00  0.00000000E+00  0.00000000E+00
  0.00000000E+00  0.00000000E+00  0.00000000E+00
  0.00000000E+00  0.00000000E+00  0.00000000E+00
  0.00000000E+00  0.00000000E+00  0.00000000E+00
  0.00000000E+00  0.00000000E+00  0.00000000E+00
  0.00000000E+00  0.00000000E+00  0.00000000E+00
  0.00000000E+00  0.00000000E+00  0.00000000E+00
  0.00000000E+00  0.00000000E+00  0.00000000E+00
  0.00000000E+00  0.00000000E+00  0.00000000E+00
  0.00000000E+00  0.00000000E+00  0.00000000E+00
  0.00000000E+00  0.00000000E+00  0.00000000E+00
  0.00000000E+00  0.00000000E+00  0.00000000E+00
  0.00000000E+00  0.00000000E+00  0.00000000E+00
  0.00000000E+00  0.00000000E+00  0.00000000E+00
  0.00000000E+00  0.00000000E+00  0.00000000E+00
  0.00000000E+00  0.00000000E+00  0.00000000E+00
  0.00000000E+00  0.00000000E+00  0.00000000E+00
  0.00000000E+00  0.00000000E+00  0.00000000E+00
  0.00000000E+00  0.00000000E+00  0.00000000E+00
  0.00000000E+00  0.00000000E+00  0.00000000E+00
  0.00000000E+00  0.00000000E+00  0.00000000E+00
  0.00000000E+00  0.00000000E+00  0.00000000E+00
  0.00000000E+00  0.00000000E+00  0.00000000E+00
  0.00000000E+00  0.00000000E+00  0.00000000E+00
  0.00000000E+00  0.00000000E+00  0.00000000E+00
  0.00000000E+00  0.00000000E+00  0.00000000E+00
  0.00000000E+00  0.00000000E+00  0.00000000E+00
  0.00000000E+00  0.00000000E+00  0.00000000E+00
  0.00000000E+00  0.00000000E+00  0.00000000E+00
  0.00000000E+00  0.00000000E+00  0.00000000E+00
  0.00000000E+00  0.00000000E+00  0.00000000E+00
  0.00000000E+00  0.00000000E+00  0.00000000E+00
  0.00000000E+00  0.00000000E+00  0.00000000E+00
  0.00000000E+00  0.00000000E+00  0.00000000E+00
  0.00000000E+00  0.00000000E+00  0.00000000E+00
  0.00000000E+00  0.00000000E+00  0.00000000E+00
  0.00000000E+00  0.00000000E+00  0.00000000E+00
  0.00000000E+00  0.00000000E+00  0.00000000E+00
  0.00000000E+00  0.00000000E+00  0.00000000E+00
  0.00000000E+00  0.00000000E+00  0.00000000E+00
