POSCAR\(1\1\1)
1.0
        7.9836001396         0.0000000000         0.0000000000
       -3.9917958475         9.0391180465         0.0000000000
        0.0000000000         0.0000000000        29.3229007721
   Ti   Ga   Al
   32    4   28
Direct
     0.609740019         0.219490007         0.238820001
     0.207259998         0.414510012         0.360960007
     0.804769993         0.609529972         0.483099997
     0.402280003         0.804560006         0.605239987
     0.409000009         0.817990005         0.299739987
     0.006510000         0.013020000         0.421880007
     0.604020000         0.208039999         0.544019997
     0.201529995         0.403059989         0.666149974
     0.408659995         0.316920012         0.299840003
     0.006170000         0.511950016         0.421979994
     0.603680015         0.706969976         0.544120014
     0.201189995         0.901989996         0.666260004
     0.207910001         0.915430009         0.360760003
     0.805419981         0.110450000         0.482899994
     0.402929991         0.305469990         0.605040014
     0.000450000         0.500500023         0.727180004
     0.908259988         0.316920012         0.299840003
     0.505779982         0.511950016         0.421979994
     0.103289999         0.706969976         0.544120014
     0.700800002         0.901989996         0.666260004
     0.707520008         0.915430009         0.360760003
     0.305029988         0.110450000         0.482899994
     0.902540028         0.305469990         0.605040014
     0.500050008         0.500500023         0.727180004
     0.109669998         0.219329998         0.238720000
     0.707180023         0.414359987         0.360859990
     0.304690003         0.609380007         0.483000010
     0.902199984         0.804400027         0.605139971
     0.908919990         0.817839980         0.299640000
     0.506429970         0.012860000         0.421779990
     0.103940003         0.207890004         0.543919981
     0.701449990         0.402909994         0.666059971
     0.558089972         0.116180003         0.330300003
     0.155599996         0.311199993         0.452439994
     0.753109992         0.506219983         0.574580014
     0.350620002         0.701240003         0.696720004
     0.759329975         0.518660009         0.269230008
     0.356840014         0.713689983         0.391369998
     0.954349995         0.908710003         0.513509989
     0.551869988         0.103730001         0.635649979
     0.759329975         0.018660000         0.269230008
     0.356840014         0.213689998         0.391369998
     0.954349995         0.408710003         0.513509989
     0.551869988         0.603730023         0.635649979
     0.558089972         0.616180003         0.330300003
     0.155599996         0.811200023         0.452439994
     0.753109992         0.006220000         0.574580014
     0.350620002         0.201240003         0.696720004
     0.259330004         0.018660000         0.269230008
     0.856840014         0.213689998         0.391369998
     0.454349995         0.408710003         0.513509989
     0.051870000         0.603730023         0.635649979
     0.058090001         0.616180003         0.330300003
     0.655600011         0.811200023         0.452439994
     0.253109992         0.006220000         0.574580014
     0.850619972         0.201240003         0.696720004
     0.058090001         0.116180003         0.330300003
     0.655600011         0.311199993         0.452439994
     0.253109992         0.506219983         0.574580014
     0.850619972         0.701240003         0.696720004
     0.259330004         0.518660009         0.269230008
     0.856840014         0.713689983         0.391369998
     0.454349995         0.908710003         0.513509989
     0.051870000         0.103730001         0.635649979
