Generated by VASPKIT code
 1.000000
    6.6561571126078301    7.3031940091444989    0.0000000000000000
   -3.2251925038627816    7.3031940091444989    0.0000000000000000
   -3.4309646087450494   -1.5151619035846011   29.9250692821179456
   Ti   Ga   Al
    24     3    21
Direct
    0.9997199757018773    0.0001400121490613    0.3206221850326022    Ti001
    0.3330533090352108    0.3334733454823948    0.4403038312830043    Ti002
    0.6663866423685438    0.6668066788157282    0.5599854775334063    Ti003
    0.6672095654535641    0.1663952172732180    0.3803152749734743    Ti004
    0.0005428987868974    0.4997285506065514    0.4999969212238763    Ti005
    0.3338762321202304    0.8330618839398849    0.6196785674742783    Ti006
    0.1662552051241568    0.1666752415713411    0.3804158162804427    Ti007
    0.4995885384574903    0.5000085749046745    0.5000974625308447    Ti008
    0.8329218717908236    0.8333419082380078    0.6197791087812468    Ti009
    0.8337447948758435    0.3329304466954978    0.4401089062213147    Ti010
    0.1670781282091769    0.6662637800288311    0.5597905524717168    Ti011
    0.5004114615425103    0.9995971133621645    0.6794721987221188    Ti012
    0.1662552051241570    0.6670695533045021    0.3804158162804427    Ti013
    0.4995885384574901    0.0004028866378355    0.5000974625308447    Ti014
    0.8329218717908234    0.3337362199711689    0.6197791087812468    Ti015
    0.8337447948758436    0.8333247584286588    0.4401089062213147    Ti016
    0.1670781282091769    0.1666580917619921    0.5597905524717167    Ti017
    0.5004114615425101    0.4999914250953256    0.6794721987221188    Ti018
    0.3327904345464364    0.8336047827267818    0.4402094475282832    Ti019
    0.6661237678797698    0.1669381160601152    0.5598910937786852    Ti020
    0.9994571012131033    0.5002714493934486    0.3205278012778812    Ti021
    0.0002800242981231    0.9998599878509384    0.4999025374691551    Ti022
    0.3336133576314566    0.3331933211842717    0.6195841837195573    Ti023
    0.6669466909647896    0.6665266545176052    0.3802208912187531    Ti024
    0.0000000000000000    0.0000000000000000    0.4102623612508788    Ga001
    0.3333333333333337    0.3333333333333333    0.5299440075012808    Ga002
    0.6666666666666667    0.6666666666666667    0.6496256537516828    Ga003
    0.6666666666666670    0.1666666666666666    0.4701031843760797    Al001
    0.0000000000000002    0.5000000000000000    0.5897848306264817    Al002
    0.3333333333333334    0.8333333333333334    0.3504215381256778    Al003
    0.1666666666666670    0.1666666666666666    0.4701031843760798    Al004
    0.5000000000000000    0.5000000000000000    0.5897848306264817    Al005
    0.8333333333333335    0.8333333333333335    0.3504215381256778    Al006
    0.8333333333333335    0.3333333333333333    0.5299440075012808    Al007
    0.1666666666666670    0.6666666666666667    0.6496256537516828    Al008
    0.5000000000000002    0.0000000000000000    0.4102623612508788    Al009
    0.1666666666666670    0.6666666666666665    0.4701031843760797    Al010
    0.5000000000000001    0.0000000000000000    0.5897848306264817    Al011
    0.8333333333333336    0.3333333333333333    0.3504215381256778    Al012
    0.8333333333333336    0.8333333333333333    0.5299440075012807    Al013
    0.1666666666666670    0.1666666666666666    0.6496256537516828    Al014
    0.5000000000000000    0.5000000000000000    0.4102623612508788    Al015
    0.3333333333333335    0.8333333333333333    0.5299440075012807    Al016
    0.6666666666666670    0.1666666666666666    0.6496256537516828    Al017
    0.0000000000000000    0.5000000000000000    0.4102623612508788    Al018
    0.0000000000000000    0.0000000000000000    0.5897848306264817    Al019
    0.3333333333333339    0.3333333333333331    0.3504215381256778    Al020
    0.6666666666666667    0.6666666666666667    0.4701031843760797    Al021
