Ti1 Al1                                 
   1.00000000000000     
     5.5714962867681148    0.0000000000000000    0.0000000000000000
     0.0000000000000000    5.5714962867681148    0.0000000000000000
     0.0000000000000000    0.0000000000000000    7.9992588544880743
   Ti   Al   Ga
     8     8     8
Direct
     0.0000000000000000    0.0000000000000000    0.0000000000000000
     0.0000000000000000    0.0000000000000000    0.5000000000000000
     0.0000000000000000    0.5000000000000000    0.0000000000000000
     0.0000000000000000    0.5000000000000000    0.5000000000000000
     0.5000000000000000    0.0000000000000000    0.0000000000000000
     0.5000000000000000    0.0000000000000000    0.5000000000000000
     0.5000000000000000    0.5000000000000000    0.0000000000000000
     0.5000000000000000    0.5000000000000000    0.5000000000000000
     0.2500000000000000    0.2500000000000000    0.2500000000000000
     0.2500000000000000    0.2500000000000000    0.7500000000000000
     0.2500000000000000    0.7500000000000000    0.2500000000000000
     0.2500000000000000    0.7500000000000000    0.7500000000000000
     0.7500000000000000    0.2500000000000000    0.2500000000000000
     0.7500000000000000    0.2500000000000000    0.7500000000000000
     0.7500000000000000    0.7500000000000000    0.2500000000000000
     0.7500000000000000    0.7500000000000000    0.7500000000000000
     0.2500000000000000    0.2500000000000000    0.2481248262779265
     0.2500000000000000    0.2500000000000000    0.7500000000000000
     0.2500000000000000    0.7500000000000000    0.2500000000000000
     0.2500000000000000    0.7500000000000000    0.7500000000000000
     0.7500000000000000    0.2500000000000000    0.2500000000000000
     0.7500000000000000    0.2500000000000000    0.7500000000000000
     0.7500000000000000    0.7500000000000000    0.2500000000000000
     0.7500000000000000    0.7500000000000000    0.7500000000000000
 
  0.00000000E+00  0.00000000E+00  0.00000000E+00
  0.00000000E+00  0.00000000E+00  0.00000000E+00
  0.00000000E+00  0.00000000E+00  0.00000000E+00
  0.00000000E+00  0.00000000E+00  0.00000000E+00
  0.00000000E+00  0.00000000E+00  0.00000000E+00
  0.00000000E+00  0.00000000E+00  0.00000000E+00
  0.00000000E+00  0.00000000E+00  0.00000000E+00
  0.00000000E+00  0.00000000E+00  0.00000000E+00
  0.00000000E+00  0.00000000E+00  0.00000000E+00
  0.00000000E+00  0.00000000E+00  0.00000000E+00
  0.00000000E+00  0.00000000E+00  0.00000000E+00
  0.00000000E+00  0.00000000E+00  0.00000000E+00
  0.00000000E+00  0.00000000E+00  0.00000000E+00
  0.00000000E+00  0.00000000E+00  0.00000000E+00
  0.00000000E+00  0.00000000E+00  0.00000000E+00
  0.00000000E+00  0.00000000E+00  0.00000000E+00
  0.00000000E+00  0.00000000E+00  0.00000000E+00
  0.00000000E+00  0.00000000E+00  0.00000000E+00
  0.00000000E+00  0.00000000E+00  0.00000000E+00
  0.00000000E+00  0.00000000E+00  0.00000000E+00
  0.00000000E+00  0.00000000E+00  0.00000000E+00
  0.00000000E+00  0.00000000E+00  0.00000000E+00
  0.00000000E+00  0.00000000E+00  0.00000000E+00
  0.00000000E+00  0.00000000E+00  0.00000000E+00
