0000065828-primitive-cell\(1\1\0)       
   1.00000000000000     
     4.0703001022000000    0.0000000000000000    0.0000000000000000
     0.0000000000000000    3.9934999943000000    0.0000000000000000
     0.0000000000000000    0.0000000000000000   20.9902000426999997
   Ti   Al
     4     4
Direct
     0.0000000000000000    0.5000000000000000    0.3334900139999988
     0.0000000000000000    0.0000000000000000    0.4286200109999996
     0.0000000000000000    0.5000000000000000    0.5237399940000032
     0.0000000000000000    0.0000000000000000    0.6188700200000028
     0.5000000000000000    0.0000000000000000    0.3334900139999988
     0.5000000000000000    0.5000000000000000    0.4286200109999996
     0.5000000000000000    0.0000000000000000    0.5237399940000032
     0.5000000000000000    0.5000000000000000    0.6188700200000028
 
  0.00000000E+00  0.00000000E+00  0.00000000E+00
  0.00000000E+00  0.00000000E+00  0.00000000E+00
  0.00000000E+00  0.00000000E+00  0.00000000E+00
  0.00000000E+00  0.00000000E+00  0.00000000E+00
  0.00000000E+00  0.00000000E+00  0.00000000E+00
  0.00000000E+00  0.00000000E+00  0.00000000E+00
  0.00000000E+00  0.00000000E+00  0.00000000E+00
  0.00000000E+00  0.00000000E+00  0.00000000E+00
