0000065828-primitive-cell\(1\1\0)
1.0
        4.0703001022         0.0000000000         0.0000000000
        0.0000000000         3.9934999943         0.0000000000
        0.0000000000         0.0000000000        20.9902000427
   Ti   Al
    4    4
Direct
     0.000000000         0.500000000         0.333490014
     0.000000000         0.000000000         0.428620011
     0.000000000         0.500000000         0.523739994
     0.000000000         0.000000000         0.618870020
     0.500000000         0.000000000         0.333490014
     0.500000000         0.500000000         0.428620011
     0.500000000         0.000000000         0.523739994
     0.500000000         0.500000000         0.618870020
