0000065828-primitive-cell\(0\2\2)       
   1.00000000000000     
     2.8238000870000000    0.0000000000000000    0.0000000000000000
     0.0000000000000000    4.9538998604000000    0.0000000000000000
     0.0000000000000000    0.0000000000000000   17.3201007842999992
   Ti   Al
     2     2
Direct
     0.0000000000000000    0.6750800009999978    0.4041500089999985
     0.0000000000000000    0.0000000000000000    0.5381100179999976
     0.5000000000000000    0.1750800009999978    0.4041500089999985
     0.5000000000000000    0.5000000000000000    0.5381100179999976
 
  0.00000000E+00  0.00000000E+00  0.00000000E+00
  0.00000000E+00  0.00000000E+00  0.00000000E+00
  0.00000000E+00  0.00000000E+00  0.00000000E+00
  0.00000000E+00  0.00000000E+00  0.00000000E+00
