# I/O
SYSTEM =  CaNi2
ISTART = 0
ICHARG = 2
PREC = N
LREAL = .FALSE.

# Electronic Relaxation
ENCUT = 520
ALGO = N
NELM = 500
EDIFF = 1E-05

# Ionic Relaxation
IBRION = 1       #（简单对称体系用1，复杂体系用2）
ISIF = 3             #（二维、零维用2）
NSW = 300
EDIFFG = -0.01


# DOS related values
ISMEAR = 0
SIGMA = 0.1

