Generated by VASPKIT code               
   1.00000000000000     
     5.6069519683837870    0.0000000000000000    0.0000000000000000
     0.0000000000000005    8.2417065341895324    0.0000000000000000
     0.0000000000000003    0.0000000000000003   19.1999048548104305
   Ga   Ti   Al
     1     7     8
Direct
     0.0000000000000000    0.0000000000000000    0.3906269357434269
     0.0000000000000000    0.5000000000000000    0.3906269357434269
     0.5000000000000000    0.0000000000000000    0.3906269357434269
     0.5000000000000000    0.5000000000000000    0.3906269357434269
     0.0000000000000000    0.0000000000000000    0.5366420334947861
     0.0000000000000000    0.5000000000000000    0.5366420334947861
     0.5000000000000000    0.0000000000000000    0.5366420334947861
     0.5000000000000000    0.5000000000000000    0.5366420334947861
     0.2509468819257492    0.2520712252121911    0.4639110027330062
     0.2509468819257492    0.7479287747878089    0.4639110027330062
     0.7490531180742508    0.2520712252121911    0.4639110027330062
     0.7490531180742508    0.7479287747878089    0.4639110027330062
     0.2509468819257492    0.2520712252121911    0.6093730642565731
     0.2509468819257492    0.7479287747878089    0.6093730642565731
     0.7490531180742508    0.2520712252121911    0.6093730642565731
     0.7490531180742508    0.7479287747878089    0.6093730642565731
 
  0.00000000E+00  0.00000000E+00  0.00000000E+00
  0.00000000E+00  0.00000000E+00  0.00000000E+00
  0.00000000E+00  0.00000000E+00  0.00000000E+00
  0.00000000E+00  0.00000000E+00  0.00000000E+00
  0.00000000E+00  0.00000000E+00  0.00000000E+00
  0.00000000E+00  0.00000000E+00  0.00000000E+00
  0.00000000E+00  0.00000000E+00  0.00000000E+00
  0.00000000E+00  0.00000000E+00  0.00000000E+00
  0.00000000E+00  0.00000000E+00  0.00000000E+00
  0.00000000E+00  0.00000000E+00  0.00000000E+00
  0.00000000E+00  0.00000000E+00  0.00000000E+00
  0.00000000E+00  0.00000000E+00  0.00000000E+00
  0.00000000E+00  0.00000000E+00  0.00000000E+00
  0.00000000E+00  0.00000000E+00  0.00000000E+00
  0.00000000E+00  0.00000000E+00  0.00000000E+00
  0.00000000E+00  0.00000000E+00  0.00000000E+00
