Generated by VASPKIT code
 1.000000
    5.6069519683837870    0.0000000000000000    0.0000000000000000
    0.0000000000000005    8.2417065341895324    0.0000000000000000
    0.0000000000000003    0.0000000000000003   19.1999048548104305
   Ga   Ti   Al
     1     7     8
Direct
    0.0000000000000000    0.0000000000000000    0.3906269357434298    Ga001
    0.0000000000000000    0.4999999999999999    0.3906269357434298    Ti001
    0.5000000000000000    0.0000000000000000    0.3906269357434298    Ti002
    0.5000000000000000    0.4999999999999999    0.3906269357434298    Ti003
    0.0000000000000000    0.0000000000000000    0.5366420334947866    Ti004
    0.0000000000000000    0.4999999999999999    0.5366420334947866    Ti005
    0.5000000000000000    0.0000000000000000    0.5366420334947866    Ti006
    0.5000000000000000    0.4999999999999999    0.5366420334947866    Ti007
    0.2509468819257499    0.2520712252121913    0.4639110027330030    Al001
    0.2509468819257499    0.7479287747878086    0.4639110027330030    Al002
    0.7490531180742501    0.2520712252121913    0.4639110027330030    Al003
    0.7490531180742501    0.7479287747878086    0.4639110027330030    Al004
    0.2509468819257499    0.2520712252121913    0.6093730642565702    Al005
    0.2509468819257499    0.7479287747878086    0.6093730642565700    Al006
    0.7490531180742501    0.2520712252121913    0.6093730642565700    Al007
    0.7490531180742501    0.7479287747878086    0.6093730642565702    Al008
